    atom_style full
    units real
    bond_style harmonic
    angle_style harmonic
    dihedral_style opls
    special_bonds lj/coul 0.0 0.0 0.5
    pair_style hybrid lj/cut/coul/long 12.0 12.0
    pair_modify mix geometric tail yes
    kspace_style pppm 1.0e-5
    atom_style full
    units real
    bond_style harmonic
    angle_style harmonic
    dihedral_style opls
    special_bonds lj/coul 0.0 0.0 0.5
    pair_style hybrid lj/cut/coul/long 12.0 12.0
    pair_modify mix geometric tail yes
    kspace_style pppm 1.0e-5
