rcc1 {

  ### LAMMPS commands for initialization
  ### (These can be overridden later.)


  write_once("In Init") {
    atom_style full
    units real
    bond_style harmonic
    angle_style harmonic
    dihedral_style opls
    special_bonds lj/coul 0.0 0.0 0.5
    pair_style hybrid lj/cut/coul/long 12.0 12.0
    pair_modify mix geometric tail yes
    kspace_style pppm 1.0e-5
  }

  write_once("In Settings") {
    pair_coeff @atom:CT1 @atom:CT1 lj/cut/coul/long 0.015774 3.500000
    pair_coeff @atom:CA1 @atom:CA1 lj/cut/coul/long 0.070005 3.550000
    pair_coeff @atom:CT7 @atom:CT7 lj/cut/coul/long 0.015774 3.500000
    pair_coeff @atom:NI1 @atom:NI1 lj/cut/coul/long 0.040631 3.250000
    pair_coeff @atom:CI1 @atom:CI1 lj/cut/coul/long 0.016730 3.550000
    pair_coeff @atom:CI2 @atom:CI2 lj/cut/coul/long 0.016730 3.550000
    pair_coeff @atom:NI2 @atom:NI2 lj/cut/coul/long 0.040631 3.250000
    pair_coeff @atom:CT2 @atom:CT2 lj/cut/coul/long 0.015774 3.500000
    pair_coeff @atom:CT3 @atom:CT3 lj/cut/coul/long 0.015774 3.500000
    pair_coeff @atom:CT4 @atom:CT4 lj/cut/coul/long 0.015774 3.500000
    pair_coeff @atom:OY @atom:OY lj/cut/coul/long 0.140010 2.900000
    pair_coeff @atom:CA2 @atom:CA2 lj/cut/coul/long 0.016730 3.550000
    pair_coeff @atom:CA @atom:CA lj/cut/coul/long 0.016730 3.550000
    pair_coeff @atom:CT5 @atom:CT5 lj/cut/coul/long 0.015774 3.500000
    pair_coeff @atom:NT @atom:NT lj/cut/coul/long 0.040631 3.300000
    pair_coeff @atom:CT6 @atom:CT6 lj/cut/coul/long 0.065989 3.500000
    pair_coeff @atom:CR @atom:CR lj/cut/coul/long 0.016730 3.550000
    pair_coeff @atom:HC @atom:HC lj/cut/coul/long 0.003585 2.500000
    pair_coeff @atom:HA @atom:HA lj/cut/coul/long 0.029995 2.420000
  }

  write_once("In Settings") {
    bond_coeff @bond:type1 317.005258 1.510000
    bond_coeff @bond:type2 382.002868 1.448000
    bond_coeff @bond:type3 340.000000 1.090000
    bond_coeff @bond:type4 468.999761 1.400000
    bond_coeff @bond:type5 367.000478 1.080000
    bond_coeff @bond:type6 336.998088 1.466000
    bond_coeff @bond:type7 339.985660 1.090000
    bond_coeff @bond:type8 427.103250 1.378000
    bond_coeff @bond:type9 477.055449 1.315000
    bond_coeff @bond:type10 520.076482 1.341000
    bond_coeff @bond:type11 339.985660 1.080000
    bond_coeff @bond:type12 339.985660 1.080000
    bond_coeff @bond:type13 427.103250 1.378000
    bond_coeff @bond:type14 336.998088 1.466000
    bond_coeff @bond:type15 477.055449 1.315000
    bond_coeff @bond:type16 340.000000 1.090000
    bond_coeff @bond:type17 267.999522 1.529000
    bond_coeff @bond:type18 340.000000 1.090000
    bond_coeff @bond:type19 267.999522 1.529000
    bond_coeff @bond:type20 340.000000 1.090000
    bond_coeff @bond:type21 320.004780 1.410000
    bond_coeff @bond:type22 320.004780 1.410000
    bond_coeff @bond:type23 469.000956 1.400000
    bond_coeff @bond:type24 367.005258 1.080000
    bond_coeff @bond:type25 468.999761 1.400000
    bond_coeff @bond:type26 317.005258 1.510000
    bond_coeff @bond:type27 340.000000 1.090000
    bond_coeff @bond:type28 382.002868 1.448000
    bond_coeff @bond:type29 382.002868 1.448000
    bond_coeff @bond:type30 340.000000 1.090000
    bond_coeff @bond:type31 520.076482 1.341000
    bond_coeff @bond:type32 339.985660 1.080000
  }

  write_once("In Settings") {
    angle_coeff @angle:type1 56.202199 112.300000
    angle_coeff @angle:type2 50.000000 109.500000
    angle_coeff @angle:type3 35.002390 109.500000
    angle_coeff @angle:type4 32.994742 107.800000
    angle_coeff @angle:type5 70.004780 120.000000
    angle_coeff @angle:type6 63.001912 120.000000
    angle_coeff @angle:type7 35.002390 120.000000
    angle_coeff @angle:type8 37.500000 110.700000
    angle_coeff @angle:type9 32.994742 107.800000
    angle_coeff @angle:type10 70.004780 125.600000
    angle_coeff @angle:type11 70.004780 126.400000
    angle_coeff @angle:type12 70.004780 108.000000
    angle_coeff @angle:type13 70.004780 107.100000
    angle_coeff @angle:type14 35.002390 122.000000
    angle_coeff @angle:type15 35.002390 130.900000
    angle_coeff @angle:type16 35.002390 130.900000
    angle_coeff @angle:type17 70.004780 107.100000
    angle_coeff @angle:type18 35.002390 122.000000
    angle_coeff @angle:type19 70.004780 125.600000
    angle_coeff @angle:type20 70.004780 108.000000
    angle_coeff @angle:type21 70.004780 126.400000
    angle_coeff @angle:type22 37.500000 110.700000
    angle_coeff @angle:type23 58.353250 112.700000
    angle_coeff @angle:type24 37.500000 110.700000
    angle_coeff @angle:type25 32.994742 107.800000
    angle_coeff @angle:type26 37.500000 110.700000
    angle_coeff @angle:type27 58.353250 112.700000
    angle_coeff @angle:type28 37.500000 110.700000
    angle_coeff @angle:type29 32.994742 107.800000
    angle_coeff @angle:type30 37.500000 110.700000
    angle_coeff @angle:type31 50.000000 109.500000
    angle_coeff @angle:type32 35.002390 109.500000
    angle_coeff @angle:type33 32.994742 107.800000
    angle_coeff @angle:type34 60.002390 111.000000
    angle_coeff @angle:type35 50.000000 120.000000
    angle_coeff @angle:type36 63.001912 120.000000
    angle_coeff @angle:type37 35.002390 120.000000
    angle_coeff @angle:type38 63.001912 120.000000
    angle_coeff @angle:type39 35.002390 120.000000
    angle_coeff @angle:type40 63.001912 120.000000
    angle_coeff @angle:type41 70.004780 120.000000
    angle_coeff @angle:type42 50.000000 109.500000
    angle_coeff @angle:type43 58.353250 112.300000
    angle_coeff @angle:type44 35.002390 109.500000
    angle_coeff @angle:type45 58.353250 109.000000
    angle_coeff @angle:type46 51.804493 107.200000
    angle_coeff @angle:type47 51.804493 107.200000
    angle_coeff @angle:type48 51.804493 107.200000
    angle_coeff @angle:type49 35.002390 109.500000
    angle_coeff @angle:type50 56.202199 109.500000
    angle_coeff @angle:type51 32.994742 107.800000
    angle_coeff @angle:type52 70.004780 109.800000
    angle_coeff @angle:type53 35.002390 125.100000
    angle_coeff @angle:type54 35.002390 125.100000
  }

  write_once("In Settings") {
    dihedral_coeff @dihedral:type1 0.000000 0.088671 0.066922 0.000000
    dihedral_coeff @dihedral:type2 0.000000 0.000000 0.000000 0.000000
    dihedral_coeff @dihedral:type3 0.394837 -0.153442 0.487572 0.000000
    dihedral_coeff @dihedral:type4 0.394837 -0.153442 0.487572 0.000000
    dihedral_coeff @dihedral:type5 0.000000 0.000000 0.133843 0.000000
    dihedral_coeff @dihedral:type6 0.000000 0.000000 0.133843 0.000000
    dihedral_coeff @dihedral:type7 0.000000 1.732792 0.000000 0.000000
    dihedral_coeff @dihedral:type8 0.000000 1.732792 0.000000 0.000000
    dihedral_coeff @dihedral:type9 0.000000 1.732792 0.000000 0.000000
    dihedral_coeff @dihedral:type10 0.000000 1.732792 0.000000 0.000000
    dihedral_coeff @dihedral:type11 0.000000 0.000000 0.000000 0.000000
    dihedral_coeff @dihedral:type12 0.000000 0.000000 0.000000 0.000000
    dihedral_coeff @dihedral:type13 0.000000 1.732792 0.000000 0.000000
    dihedral_coeff @dihedral:type14 0.000000 1.732792 0.000000 0.000000
    dihedral_coeff @dihedral:type15 0.000000 1.732792 0.000000 0.000000
    dihedral_coeff @dihedral:type16 0.000000 1.732792 0.000000 0.000000
    dihedral_coeff @dihedral:type17 0.000000 1.732792 0.000000 0.000000
    dihedral_coeff @dihedral:type18 0.000000 1.732792 0.000000 0.000000
    dihedral_coeff @dihedral:type19 0.000000 1.732792 0.000000 0.000000
    dihedral_coeff @dihedral:type20 0.000000 1.732792 0.000000 0.000000
    dihedral_coeff @dihedral:type21 0.000000 2.569312 0.000000 0.000000
    dihedral_coeff @dihedral:type22 0.000000 2.569312 0.000000 0.000000
    dihedral_coeff @dihedral:type23 0.000000 1.732792 0.000000 0.000000
    dihedral_coeff @dihedral:type24 0.000000 2.569312 0.000000 0.000000
    dihedral_coeff @dihedral:type25 0.000000 1.732792 0.000000 0.000000
    dihedral_coeff @dihedral:type26 0.000000 1.732792 0.000000 0.000000
    dihedral_coeff @dihedral:type27 0.000000 1.732792 0.000000 0.000000
    dihedral_coeff @dihedral:type28 0.000000 1.732792 0.000000 0.000000
    dihedral_coeff @dihedral:type29 0.000000 0.000000 0.000000 0.000000
    dihedral_coeff @dihedral:type30 0.527008 0.007887 0.186902 0.000000
    dihedral_coeff @dihedral:type31 0.000000 0.000000 0.000000 0.000000
    dihedral_coeff @dihedral:type32 0.527008 0.007887 0.186902 0.000000
    dihedral_coeff @dihedral:type33 0.000000 1.732792 0.000000 0.000000
    dihedral_coeff @dihedral:type34 0.000000 1.732792 0.000000 0.000000
    dihedral_coeff @dihedral:type35 0.000000 1.732792 0.000000 0.000000
    dihedral_coeff @dihedral:type36 0.000000 1.732792 0.000000 0.000000
    dihedral_coeff @dihedral:type37 0.000000 0.000000 0.071702 0.000000
    dihedral_coeff @dihedral:type38 -0.308795 0.279159 0.000000 0.000000
    dihedral_coeff @dihedral:type39 0.000000 0.000000 0.071702 0.000000
    dihedral_coeff @dihedral:type40 0.000000 0.000000 0.071702 0.000000
    dihedral_coeff @dihedral:type41 0.000000 0.000000 0.071702 0.000000
    dihedral_coeff @dihedral:type42 0.299952 -0.147945 0.130497 0.000000
    dihedral_coeff @dihedral:type43 0.000000 0.000000 0.071702 0.000000
    dihedral_coeff @dihedral:type44 0.000000 0.000000 0.111855 0.000000
    dihedral_coeff @dihedral:type45 -0.157027 -0.171128 0.162285 0.000000
    dihedral_coeff @dihedral:type46 0.000000 0.000000 0.038480 0.000000
    dihedral_coeff @dihedral:type47 0.000000 0.935946 0.000000 0.000000
    dihedral_coeff @dihedral:type48 0.000000 1.732792 0.000000 0.000000
    dihedral_coeff @dihedral:type49 0.000000 1.732792 0.000000 0.000000
    dihedral_coeff @dihedral:type50 0.000000 1.732792 0.000000 0.000000
    dihedral_coeff @dihedral:type51 0.000000 1.732792 0.000000 0.000000
    dihedral_coeff @dihedral:type52 0.000000 1.732792 0.000000 0.000000
    dihedral_coeff @dihedral:type53 0.000000 1.732792 0.000000 0.000000
    dihedral_coeff @dihedral:type54 0.000000 1.732792 0.000000 0.000000
    dihedral_coeff @dihedral:type55 0.000000 1.732792 0.000000 0.000000
    dihedral_coeff @dihedral:type56 0.000000 1.732792 0.000000 0.000000
    dihedral_coeff @dihedral:type57 0.000000 1.732792 0.000000 0.000000
    dihedral_coeff @dihedral:type58 0.000000 1.732792 0.000000 0.000000
    dihedral_coeff @dihedral:type59 0.000000 0.000000 0.000000 0.000000
    dihedral_coeff @dihedral:type60 0.000000 0.088671 0.066922 0.000000
    dihedral_coeff @dihedral:type61 0.394837 -0.153442 0.487572 0.000000
    dihedral_coeff @dihedral:type62 0.394837 -0.153442 0.487572 0.000000
    dihedral_coeff @dihedral:type63 0.000000 0.000000 0.133843 0.000000
    dihedral_coeff @dihedral:type64 0.000000 0.000000 0.133843 0.000000
    dihedral_coeff @dihedral:type65 0.110899 0.010038 0.119264 0.000000
    dihedral_coeff @dihedral:type66 0.110899 0.010038 0.119264 0.000000
    dihedral_coeff @dihedral:type67 0.000000 0.000000 0.133843 0.000000
    dihedral_coeff @dihedral:type68 0.112094 0.009799 0.120698 0.000000
    dihedral_coeff @dihedral:type69 0.000000 0.000000 0.133843 0.000000
    dihedral_coeff @dihedral:type70 0.112094 0.009799 0.120698 0.000000
    dihedral_coeff @dihedral:type71 0.000000 0.000000 0.071702 0.000000
    dihedral_coeff @dihedral:type72 0.271272 -0.036090 0.095602 0.000000
    dihedral_coeff @dihedral:type73 0.000000 0.000000 0.071702 0.000000
    dihedral_coeff @dihedral:type74 0.000000 1.912046 0.000000 0.000000
    dihedral_coeff @dihedral:type75 0.000000 0.525813 0.000000 0.000000
    dihedral_coeff @dihedral:type76 0.000000 1.912046 0.000000 0.000000
    dihedral_coeff @dihedral:type77 0.000000 0.525813 0.000000 0.000000
    dihedral_coeff @dihedral:type78 0.000000 0.525813 0.000000 0.000000
    dihedral_coeff @dihedral:type79 0.000000 1.912046 0.000000 0.000000
    dihedral_coeff @dihedral:type80 0.000000 1.912046 0.000000 0.000000
    dihedral_coeff @dihedral:type81 0.000000 0.525813 0.000000 0.000000
    dihedral_coeff @dihedral:type82 0.000000 0.525813 0.000000 0.000000
    dihedral_coeff @dihedral:type83 0.000000 1.912046 0.000000 0.000000
    dihedral_coeff @dihedral:type84 0.000000 0.525813 0.000000 0.000000
  }


  ### DATA sections


  write_once("Data Masses") {
    @atom:CT1 12.011
    @atom:CA1 12.011
    @atom:CT7 12.011
    @atom:NI1 14.007
    @atom:CI1 12.011
    @atom:CI2 12.011
    @atom:NI2 14.007
    @atom:CT2 12.011
    @atom:CT3 12.011
    @atom:CT4 12.011
    @atom:OY 15.999
    @atom:CA2 12.011
    @atom:CA 12.011
    @atom:CT5 12.011
    @atom:NT 14.007
    @atom:CT6 12.011
    @atom:CR 12.011
    @atom:HC 1.008
    @atom:HA 1.008
  }

  write("Data Atoms") {
    $atom:CT1_1 $mol:m1 @atom:CT1 0.205000 1.368779e+01 1.630841e+01 2.022788e+01
    $atom:CA1_1 $mol:m1 @atom:CA1 -0.141750 1.355332e+01 1.581803e+01 1.878486e+01
    $atom:CA1_2 $mol:m1 @atom:CA1 -0.141750 1.321294e+01 1.449056e+01 1.850449e+01
    $atom:CA1_3 $mol:m1 @atom:CA1 -0.141750 1.323019e+01 1.400250e+01 1.719256e+01
    $atom:CT1_2 $mol:m1 @atom:CT1 0.205000 1.285418e+01 1.255171e+01 1.688612e+01
    $atom:CA1_4 $mol:m1 @atom:CA1 -0.141750 1.354697e+01 1.487372e+01 1.614810e+01
    $atom:CA1_5 $mol:m1 @atom:CA1 -0.141750 1.389598e+01 1.620382e+01 1.640602e+01
    $atom:CT1_3 $mol:m1 @atom:CT1 0.205000 1.444474e+01 1.707749e+01 1.527691e+01
    $atom:CA1_6 $mol:m1 @atom:CA1 -0.141750 1.387283e+01 1.667420e+01 1.772480e+01
    $atom:CT1_4 $mol:m1 @atom:CT1 0.205000 1.149789e+01 1.691304e+01 2.450985e+01
    $atom:CA1_7 $mol:m1 @atom:CA1 -0.141750 1.257143e+01 1.608375e+01 2.522498e+01
    $atom:CA1_8 $mol:m1 @atom:CA1 -0.141750 1.388133e+01 1.656763e+01 2.529736e+01
    $atom:CA1_9 $mol:m1 @atom:CA1 -0.141750 1.492009e+01 1.576796e+01 2.577783e+01
    $atom:CT1_5 $mol:m1 @atom:CT1 0.205000 1.636765e+01 1.619000e+01 2.553744e+01
    $atom:CA1_10 $mol:m1 @atom:CA1 -0.141750 1.462951e+01 1.448069e+01 2.624008e+01
    $atom:CA1_11 $mol:m1 @atom:CA1 -0.141750 1.332712e+01 1.397704e+01 2.617942e+01
    $atom:CT1_6 $mol:m1 @atom:CT1 0.205000 1.307925e+01 1.249843e+01 2.647097e+01
    $atom:CA1_12 $mol:m1 @atom:CA1 -0.141750 1.230294e+01 1.478210e+01 2.566573e+01
    $atom:CT1_7 $mol:m1 @atom:CT1 0.205000 1.689181e+01 1.483430e+01 1.705024e+01
    $atom:CA1_13 $mol:m1 @atom:CA1 -0.141750 1.786927e+01 1.439998e+01 1.813937e+01
    $atom:CA1_14 $mol:m1 @atom:CA1 -0.141750 1.846292e+01 1.313381e+01 1.809662e+01
    $atom:CA1_15 $mol:m1 @atom:CA1 -0.141750 1.933775e+01 1.272000e+01 1.910878e+01
    $atom:CT1_8 $mol:m1 @atom:CT1 0.205000 1.984285e+01 1.127699e+01 1.914229e+01
    $atom:CA1_16 $mol:m1 @atom:CA1 -0.141750 1.964470e+01 1.360580e+01 2.014788e+01
    $atom:CA1_17 $mol:m1 @atom:CA1 -0.141750 1.905689e+01 1.487349e+01 2.020687e+01
    $atom:CT1_9 $mol:m1 @atom:CT1 0.205000 1.920529e+01 1.572766e+01 2.146551e+01
    $atom:CA1_18 $mol:m1 @atom:CA1 -0.141750 1.817364e+01 1.526402e+01 1.919678e+01
    $atom:CT1_10 $mol:m1 @atom:CT1 0.205000 1.385913e+01 8.157126e+00 1.894979e+01
    $atom:CA1_19 $mol:m1 @atom:CA1 -0.141750 1.456459e+01 7.800221e+00 2.025292e+01
    $atom:CA1_20 $mol:m1 @atom:CA1 -0.141750 1.390883e+01 7.998302e+00 2.147093e+01
    $atom:CA1_21 $mol:m1 @atom:CA1 -0.141750 1.460137e+01 7.905609e+00 2.268197e+01
    $atom:CT1_11 $mol:m1 @atom:CT1 0.205000 1.390869e+01 8.288997e+00 2.399010e+01
    $atom:CA1_22 $mol:m1 @atom:CA1 -0.141750 1.597058e+01 7.616693e+00 2.266092e+01
    $atom:CA1_23 $mol:m1 @atom:CA1 -0.141750 1.663753e+01 7.388074e+00 2.144982e+01
    $atom:CT1_12 $mol:m1 @atom:CT1 0.205000 1.815420e+01 7.184512e+00 2.143247e+01
    $atom:CA1_24 $mol:m1 @atom:CA1 -0.141750 1.592608e+01 7.484542e+00 2.025057e+01
    $atom:CT7_1 $mol:m1 @atom:CT7 0.057500 1.464238e+01 3.056856e+01 2.323244e+01
    $atom:NI1_1 $mol:m1 @atom:NI1 0.150000 1.447341e+01 2.938015e+01 2.241346e+01
    $atom:CI1_1 $mol:m1 @atom:CI1 -0.130000 1.509258e+01 2.912415e+01 2.119868e+01
    $atom:CI2_1 $mol:m1 @atom:CI2 -0.130000 1.463791e+01 2.789454e+01 2.072793e+01
    $atom:NI2_1 $mol:m1 @atom:NI2 0.150000 1.372201e+01 2.740024e+01 2.164819e+01
    $atom:CT2_1 $mol:m1 @atom:CT2 0.002500 1.300096e+01 2.613461e+01 2.155546e+01
    $atom:CT3_1 $mol:m1 @atom:CT3 -0.120000 1.392144e+01 2.494046e+01 2.188210e+01
    $atom:CT4_1 $mol:m1 @atom:CT4 0.140000 1.319013e+01 2.359284e+01 2.181326e+01
    $atom:OY_1 $mol:m1 @atom:OY -0.400000 1.412280e+01 2.256147e+01 2.212943e+01
    $atom:CA2_1 $mol:m1 @atom:CA2 0.085000 1.369823e+01 2.124679e+01 2.214875e+01
    $atom:CA_1 $mol:m1 @atom:CA -0.115000 1.238793e+01 2.083259e+01 2.186624e+01
    $atom:CA_2 $mol:m1 @atom:CA -0.115000 1.205440e+01 1.948107e+01 2.191349e+01
    $atom:CA_3 $mol:m1 @atom:CA -0.115000 1.302046e+01 1.852595e+01 2.224830e+01
    $atom:CT5_1 $mol:m1 @atom:CT5 0.475000 1.267416e+01 1.702982e+01 2.229841e+01
    $atom:NT_1 $mol:m1 @atom:NT -0.630000 1.242607e+01 1.645622e+01 2.097656e+01
    $atom:CT6_1 $mol:m1 @atom:CT6 0.003700 1.181196e+01 1.517686e+01 2.132016e+01
    $atom:CT6_2 $mol:m1 @atom:CT6 0.003700 1.097794e+01 1.544248e+01 2.257219e+01
    $atom:NT_2 $mol:m1 @atom:NT -0.630000 1.144730e+01 1.674118e+01 2.304272e+01
    $atom:CA_4 $mol:m1 @atom:CA -0.115000 1.432805e+01 1.893864e+01 2.251963e+01
    $atom:CA_5 $mol:m1 @atom:CA -0.115000 1.465986e+01 2.029021e+01 2.247205e+01
    $atom:CR_1 $mol:m1 @atom:CR 0.190000 1.362634e+01 2.832174e+01 2.267474e+01
    $atom:CT7_2 $mol:m1 @atom:CT7 0.057500 2.213224e+01 1.418049e+01 2.330265e+00
    $atom:NI1_2 $mol:m1 @atom:NI1 0.150000 2.215287e+01 1.481568e+01 3.637062e+00
    $atom:CI1_2 $mol:m1 @atom:CI1 -0.130000 2.240815e+01 1.615440e+01 3.896020e+00
    $atom:CI2_2 $mol:m1 @atom:CI2 -0.130000 2.229679e+01 1.636214e+01 5.268762e+00
    $atom:NI2_2 $mol:m1 @atom:NI2 0.150000 2.196169e+01 1.514844e+01 5.855878e+00
    $atom:CT2_2 $mol:m1 @atom:CT2 0.002500 2.172776e+01 1.491140e+01 7.276898e+00
    $atom:CT3_2 $mol:m1 @atom:CT3 -0.120000 2.035531e+01 1.546125e+01 7.717131e+00
    $atom:CT4_2 $mol:m1 @atom:CT4 0.140000 2.007203e+01 1.522722e+01 9.207292e+00
    $atom:OY_2 $mol:m1 @atom:OY -0.400000 1.879115e+01 1.577704e+01 9.507683e+00
    $atom:CA2_2 $mol:m1 @atom:CA2 0.085000 1.832032e+01 1.572964e+01 1.080564e+01
    $atom:CA_6 $mol:m1 @atom:CA -0.115000 1.900548e+01 1.514180e+01 1.187800e+01
    $atom:CA_7 $mol:m1 @atom:CA -0.115000 1.844940e+01 1.514910e+01 1.315536e+01
    $atom:CA_8 $mol:m1 @atom:CA -0.115000 1.720707e+01 1.575479e+01 1.339406e+01
    $atom:CT5_2 $mol:m1 @atom:CT5 0.475000 1.655897e+01 1.574581e+01 1.479901e+01
    $atom:NT_3 $mol:m1 @atom:NT -0.630000 1.591117e+01 1.703210e+01 1.510664e+01
    $atom:CT6_3 $mol:m1 @atom:CT6 0.003700 1.671932e+01 1.773208e+01 1.609853e+01
    $atom:CT6_4 $mol:m1 @atom:CT6 0.003700 1.796857e+01 1.686144e+01 1.619848e+01
    $atom:NT_4 $mol:m1 @atom:NT -0.630000 1.751672e+01 1.550447e+01 1.589362e+01
    $atom:CA_9 $mol:m1 @atom:CA -0.115000 1.651946e+01 1.631749e+01 1.231072e+01
    $atom:CA_10 $mol:m1 @atom:CA -0.115000 1.707475e+01 1.630951e+01 1.103379e+01
    $atom:CR_2 $mol:m1 @atom:CR 0.190000 2.186617e+01 1.421047e+01 4.844391e+00
    $atom:CT7_3 $mol:m1 @atom:CT7 0.057500 1.241785e+01 2.989217e+00 6.139981e+00
    $atom:NI1_3 $mol:m1 @atom:NI1 0.150000 1.271320e+01 4.236855e+00 6.823984e+00
    $atom:CI1_3 $mol:m1 @atom:CI1 -0.130000 1.250168e+01 5.515424e+00 6.329018e+00
    $atom:CI2_3 $mol:m1 @atom:CI2 -0.130000 1.294564e+01 6.430602e+00 7.280660e+00
    $atom:NI2_3 $mol:m1 @atom:NI2 0.150000 1.344879e+01 5.712040e+00 8.358055e+00
    $atom:CT2_3 $mol:m1 @atom:CT2 0.002500 1.401443e+01 6.271616e+00 9.581644e+00
    $atom:CT3_3 $mol:m1 @atom:CT3 -0.120000 1.291017e+01 6.821426e+00 1.050803e+01
    $atom:CT4_3 $mol:m1 @atom:CT4 0.140000 1.346659e+01 7.400812e+00 1.181590e+01
    $atom:OY_3 $mol:m1 @atom:OY -0.400000 1.236984e+01 7.874648e+00 1.259405e+01
    $atom:CA2_3 $mol:m1 @atom:CA2 0.085000 1.260916e+01 8.428406e+00 1.383683e+01
    $atom:CA_11 $mol:m1 @atom:CA -0.115000 1.388077e+01 8.579689e+00 1.440763e+01
    $atom:CA_12 $mol:m1 @atom:CA -0.115000 1.402086e+01 9.149013e+00 1.567136e+01
    $atom:CA_13 $mol:m1 @atom:CA -0.115000 1.289531e+01 9.574950e+00 1.639002e+01
    $atom:CT5_3 $mol:m1 @atom:CT5 0.475000 1.297952e+01 1.021997e+01 1.779514e+01
    $atom:NT_5 $mol:m1 @atom:NT -0.630000 1.345248e+01 1.160023e+01 1.782940e+01
    $atom:CT6_5 $mol:m1 @atom:CT6 0.003700 1.490916e+01 1.152084e+01 1.781590e+01
    $atom:CT6_6 $mol:m1 @atom:CT6 0.003700 1.521459e+01 1.023101e+01 1.857529e+01
    $atom:NT_6 $mol:m1 @atom:NT -0.630000 1.390106e+01 9.609796e+00 1.874712e+01
    $atom:CA_14 $mol:m1 @atom:CA -0.115000 1.163078e+01 9.425763e+00 1.581198e+01
    $atom:CA_15 $mol:m1 @atom:CA -0.115000 1.149138e+01 8.857493e+00 1.454860e+01
    $atom:CR_3 $mol:m1 @atom:CR 0.190000 1.330465e+01 4.368468e+00 8.064518e+00
    $atom:CT7_4 $mol:m1 @atom:CT7 0.057500 3.005027e+01 1.668891e+01 3.002013e+01
    $atom:NI1_4 $mol:m1 @atom:NI1 0.150000 2.859991e+01 1.673088e+01 3.009955e+01
    $atom:CI1_4 $mol:m1 @atom:CI1 -0.130000 2.784475e+01 1.757580e+01 3.089991e+01
    $atom:CI2_4 $mol:m1 @atom:CI2 -0.130000 2.649762e+01 1.732173e+01 3.065313e+01
    $atom:NI2_4 $mol:m1 @atom:NI2 0.150000 2.642359e+01 1.632325e+01 2.969005e+01
    $atom:CT2_4 $mol:m1 @atom:CT2 0.002500 2.520315e+01 1.576073e+01 2.912063e+01
    $atom:CT3_4 $mol:m1 @atom:CT3 -0.120000 2.456094e+01 1.672924e+01 2.810580e+01
    $atom:CT4_4 $mol:m1 @atom:CT4 0.140000 2.327859e+01 1.616563e+01 2.747851e+01
    $atom:OY_4 $mol:m1 @atom:OY -0.400000 2.276613e+01 1.713343e+01 2.656527e+01
    $atom:CA2_4 $mol:m1 @atom:CA2 0.085000 2.159712e+01 1.686543e+01 2.587938e+01
    $atom:CA_16 $mol:m1 @atom:CA -0.115000 2.085820e+01 1.568042e+01 2.600269e+01
    $atom:CA_17 $mol:m1 @atom:CA -0.115000 1.968758e+01 1.550241e+01 2.526914e+01
    $atom:CA_18 $mol:m1 @atom:CA -0.115000 1.923066e+01 1.650400e+01 2.440163e+01
    $atom:CT5_4 $mol:m1 @atom:CT5 0.475000 1.794374e+01 1.636659e+01 2.355303e+01
    $atom:NT_7 $mol:m1 @atom:NT -0.630000 1.678923e+01 1.574730e+01 2.420108e+01
    $atom:CT6_7 $mol:m1 @atom:CT6 0.003700 1.686126e+01 1.430355e+01 2.398041e+01
    $atom:CT6_8 $mol:m1 @atom:CT6 0.003700 1.786584e+01 1.415625e+01 2.284603e+01
    $atom:NT_8 $mol:m1 @atom:NT -0.630000 1.806370e+01 1.551942e+01 2.236771e+01
    $atom:CA_19 $mol:m1 @atom:CA -0.115000 1.997521e+01 1.768143e+01 2.427987e+01
    $atom:CA_20 $mol:m1 @atom:CA -0.115000 2.114585e+01 1.785843e+01 2.501271e+01
    $atom:CR_4 $mol:m1 @atom:CR 0.190000 2.771862e+01 1.597687e+01 2.935085e+01
    $atom:CT7_5 $mol:m1 @atom:CT7 0.057500 2.468696e+00 3.615445e+00 3.023423e+01
    $atom:NI1_5 $mol:m1 @atom:NI1 0.150000 3.150411e+00 4.856694e+00 2.990851e+01
    $atom:CI1_5 $mol:m1 @atom:CI1 -0.130000 3.046747e+00 6.056387e+00 3.059729e+01
    $atom:CI2_5 $mol:m1 @atom:CI2 -0.130000 3.832811e+00 7.003212e+00 2.994489e+01
    $atom:NI2_5 $mol:m1 @atom:NI2 0.150000 4.408460e+00 6.388390e+00 2.884009e+01
    $atom:CT2_5 $mol:m1 @atom:CT2 0.002500 5.311538e+00 7.011142e+00 2.787745e+01
    $atom:CT3_5 $mol:m1 @atom:CT3 -0.120000 6.725671e+00 7.185298e+00 2.846878e+01
    $atom:CT4_5 $mol:m1 @atom:CT4 0.140000 7.706648e+00 7.830646e+00 2.748043e+01
    $atom:OY_5 $mol:m1 @atom:OY -0.400000 8.975435e+00 7.941922e+00 2.812143e+01
    $atom:CA2_5 $mol:m1 @atom:CA2 0.085000 1.003595e+01 8.499085e+00 2.743356e+01
    $atom:CA_21 $mol:m1 @atom:CA -0.115000 9.965089e+00 8.979549e+00 2.611841e+01
    $atom:CA_22 $mol:m1 @atom:CA -0.115000 1.109151e+01 9.526496e+00 2.550804e+01
    $atom:CA_23 $mol:m1 @atom:CA -0.115000 1.231001e+01 9.601843e+00 2.619716e+01
    $atom:CT5_5 $mol:m1 @atom:CT5 0.475000 1.359611e+01 1.020724e+01 2.558073e+01
    $atom:NT_9 $mol:m1 @atom:NT -0.630000 1.357146e+01 1.165328e+01 2.537179e+01
    $atom:CT6_9 $mol:m1 @atom:CT6 0.003700 1.294343e+01 1.185733e+01 2.407167e+01
    $atom:CT6_10 $mol:m1 @atom:CT6 0.003700 1.330880e+01 1.060440e+01 2.327644e+01
    $atom:NT_10 $mol:m1 @atom:NT -0.630000 1.397498e+01 9.736116e+00 2.424740e+01
    $atom:CA_24 $mol:m1 @atom:CA -0.115000 1.237254e+01 9.122716e+00 2.750948e+01
    $atom:CA_25 $mol:m1 @atom:CA -0.115000 1.124605e+01 8.576651e+00 2.811904e+01
    $atom:CR_5 $mol:m1 @atom:CR 0.190000 3.979315e+00 5.073917e+00 2.882602e+01
    $atom:CT7_6 $mol:m1 @atom:CT7 0.057500 2.933513e+01 2.068151e+00 1.411283e+01
    $atom:NI1_6 $mol:m1 @atom:NI1 0.150000 2.871291e+01 3.339380e+00 1.444222e+01
    $atom:CI1_6 $mol:m1 @atom:CI1 -0.130000 2.872623e+01 4.487148e+00 1.366306e+01
    $atom:CI2_6 $mol:m1 @atom:CI2 -0.130000 2.804478e+01 5.488827e+00 1.435042e+01
    $atom:NI2_6 $mol:m1 @atom:NI2 0.150000 2.762579e+01 4.960400e+00 1.556502e+01
    $atom:CT2_6 $mol:m1 @atom:CT2 0.002500 2.687034e+01 5.661802e+00 1.659825e+01
    $atom:CT3_6 $mol:m1 @atom:CT3 -0.120000 2.538915e+01 5.821044e+00 1.619752e+01
    $atom:CT4_6 $mol:m1 @atom:CT4 0.140000 2.455856e+01 6.537011e+00 1.727131e+01
    $atom:OY_6 $mol:m1 @atom:OY -0.400000 2.321328e+01 6.628529e+00 1.680721e+01
    $atom:CA2_6 $mol:m1 @atom:CA2 0.085000 2.225740e+01 7.217485e+00 1.761225e+01
    $atom:CA_26 $mol:m1 @atom:CA -0.115000 2.251375e+01 7.762814e+00 1.887899e+01
    $atom:CA_27 $mol:m1 @atom:CA -0.115000 2.148066e+01 8.333274e+00 1.961854e+01
    $atom:CA_28 $mol:m1 @atom:CA -0.115000 2.017877e+01 8.367032e+00 1.910565e+01
    $atom:CT5_6 $mol:m1 @atom:CT5 0.475000 1.902317e+01 8.994896e+00 1.990245e+01
    $atom:NT_11 $mol:m1 @atom:NT -0.630000 1.910026e+01 1.044919e+01 2.010996e+01
    $atom:CT6_11 $mol:m1 @atom:CT6 0.003700 1.941757e+01 1.065844e+01 2.151604e+01
    $atom:CT6_12 $mol:m1 @atom:CT6 0.003700 1.871201e+01 9.501517e+00 2.219241e+01
    $atom:NT_12 $mol:m1 @atom:NT -0.630000 1.893569e+01 8.418954e+00 2.124849e+01
    $atom:CA_29 $mol:m1 @atom:CA -0.115000 1.992530e+01 7.826878e+00 1.784227e+01
    $atom:CA_30 $mol:m1 @atom:CA -0.115000 2.095971e+01 7.257157e+00 1.710420e+01
    $atom:CR_6 $mol:m1 @atom:CR 0.190000 2.804494e+01 3.643460e+00 1.561146e+01
    $atom:HC_1 $mol:m1 @atom:HC 0.060000 1.416087e+01 1.729089e+01 2.018539e+01
    $atom:HC_2 $mol:m1 @atom:HC 0.060000 1.439902e+01 1.566882e+01 2.075575e+01
    $atom:HA_1 $mol:m1 @atom:HA 0.159400 1.298502e+01 1.380850e+01 1.931013e+01
    $atom:HC_3 $mol:m1 @atom:HC 0.060000 1.176638e+01 1.247650e+01 1.692838e+01
    $atom:HC_4 $mol:m1 @atom:HC 0.060000 1.312925e+01 1.229955e+01 1.585998e+01
    $atom:HA_2 $mol:m1 @atom:HA 0.159400 1.357042e+01 1.450364e+01 1.513235e+01
    $atom:HC_5 $mol:m1 @atom:HC 0.060000 1.398816e+01 1.676082e+01 1.433783e+01
    $atom:HC_6 $mol:m1 @atom:HC 0.060000 1.413891e+01 1.811259e+01 1.543953e+01
    $atom:HA_3 $mol:m1 @atom:HA 0.159400 1.416235e+01 1.769484e+01 1.793180e+01
    $atom:HC_7 $mol:m1 @atom:HC 0.060000 1.167420e+01 1.796899e+01 2.472237e+01
    $atom:HC_8 $mol:m1 @atom:HC 0.060000 1.051796e+01 1.667045e+01 2.492471e+01
    $atom:HA_4 $mol:m1 @atom:HA 0.159400 1.410951e+01 1.754350e+01 2.489478e+01
    $atom:HC_9 $mol:m1 @atom:HC 0.060000 1.643922e+01 1.727771e+01 2.559358e+01
    $atom:HC_10 $mol:m1 @atom:HC 0.060000 1.702314e+01 1.577104e+01 2.630266e+01
    $atom:HA_5 $mol:m1 @atom:HA 0.159400 1.543346e+01 1.382964e+01 2.655408e+01
    $atom:HC_11 $mol:m1 @atom:HC 0.060000 1.359954e+01 1.222890e+01 2.739176e+01
    $atom:HC_12 $mol:m1 @atom:HC 0.060000 1.201439e+01 1.232118e+01 2.663424e+01
    $atom:HA_6 $mol:m1 @atom:HA 0.159400 1.130560e+01 1.437730e+01 2.556553e+01
    $atom:HC_13 $mol:m1 @atom:HC 0.060000 1.637277e+01 1.394339e+01 1.669334e+01
    $atom:HC_14 $mol:m1 @atom:HC 0.060000 1.614557e+01 1.547480e+01 1.751110e+01
    $atom:HA_7 $mol:m1 @atom:HA 0.159400 1.821079e+01 1.245475e+01 1.729400e+01
    $atom:HC_15 $mol:m1 @atom:HC 0.060000 1.970912e+01 1.085380e+01 1.814505e+01
    $atom:HC_16 $mol:m1 @atom:HC 0.060000 2.091347e+01 1.125408e+01 1.935389e+01
    $atom:HA_8 $mol:m1 @atom:HA 0.159400 2.029558e+01 1.328625e+01 2.094897e+01
    $atom:HC_17 $mol:m1 @atom:HC 0.060000 2.013781e+01 1.548327e+01 2.197810e+01
    $atom:HC_18 $mol:m1 @atom:HC 0.060000 1.924899e+01 1.678065e+01 2.118202e+01
    $atom:HA_9 $mol:m1 @atom:HA 0.159400 1.768163e+01 1.622421e+01 1.926603e+01
    $atom:HC_19 $mol:m1 @atom:HC 0.060000 1.432339e+01 7.643177e+00 1.810638e+01
    $atom:HC_20 $mol:m1 @atom:HC 0.060000 1.281899e+01 7.831371e+00 1.900734e+01
    $atom:HA_10 $mol:m1 @atom:HA 0.159400 1.286892e+01 8.293448e+00 2.146898e+01
    $atom:HC_21 $mol:m1 @atom:HC 0.060000 1.286848e+01 7.959733e+00 2.396348e+01
    $atom:HC_22 $mol:m1 @atom:HC 0.060000 1.439660e+01 7.764464e+00 2.481376e+01
    $atom:HA_11 $mol:m1 @atom:HA 0.159400 1.652534e+01 7.602008e+00 2.358890e+01
    $atom:HC_23 $mol:m1 @atom:HC 0.060000 1.845762e+01 6.735003e+00 2.237955e+01
    $atom:HC_24 $mol:m1 @atom:HC 0.060000 1.841908e+01 6.473090e+00 2.064816e+01
    $atom:HA_12 $mol:m1 @atom:HA 0.159400 1.644378e+01 7.368347e+00 1.930913e+01
    $atom:HC_25 $mol:m1 @atom:HC 0.060000 1.373046e+01 3.076908e+01 2.379492e+01
    $atom:HC_26 $mol:m1 @atom:HC 0.060000 1.487941e+01 3.142547e+01 2.260189e+01
    $atom:HC_27 $mol:m1 @atom:HC 0.060000 1.546176e+01 3.040347e+01 2.393133e+01
    $atom:HA_13 $mol:m1 @atom:HA 0.159400 1.579978e+01 2.983158e+01 2.078024e+01
    $atom:HA_14 $mol:m1 @atom:HA 0.159400 1.487492e+01 2.733535e+01 1.982884e+01
    $atom:HC_28 $mol:m1 @atom:HC 0.060000 1.214871e+01 2.616428e+01 2.223666e+01
    $atom:HC_29 $mol:m1 @atom:HC 0.060000 1.257899e+01 2.604996e+01 2.055266e+01
    $atom:HC_30 $mol:m1 @atom:HC 0.060000 1.476471e+01 2.491874e+01 2.118998e+01
    $atom:HC_31 $mol:m1 @atom:HC 0.060000 1.434341e+01 2.506211e+01 2.288125e+01
    $atom:HC_32 $mol:m1 @atom:HC 0.060000 1.278332e+01 2.344026e+01 2.081140e+01
    $atom:HC_33 $mol:m1 @atom:HC 0.060000 1.236058e+01 2.358388e+01 2.252363e+01
    $atom:HA_15 $mol:m1 @atom:HA 0.159400 1.161628e+01 2.154126e+01 2.160718e+01
    $atom:HA_16 $mol:m1 @atom:HA 0.159400 1.104425e+01 1.916773e+01 2.169086e+01
    $atom:HC_34 $mol:m1 @atom:HC 0.060000 1.351118e+01 1.649312e+01 2.275452e+01