pair_coeff 1 1 lj/cut/coul/long 0.015774 3.500000
pair_coeff 2 2 lj/cut/coul/long 0.070005 3.550000
pair_coeff 3 3 lj/cut/coul/long 0.015774 3.500000
pair_coeff 4 4 lj/cut/coul/long 0.040631 3.250000
pair_coeff 5 5 lj/cut/coul/long 0.016730 3.550000
pair_coeff 6 6 lj/cut/coul/long 0.016730 3.550000
pair_coeff 7 7 lj/cut/coul/long 0.040631 3.250000
pair_coeff 8 8 lj/cut/coul/long 0.015774 3.500000
pair_coeff 9 9 lj/cut/coul/long 0.015774 3.500000
pair_coeff 10 10 lj/cut/coul/long 0.015774 3.500000
pair_coeff 11 11 lj/cut/coul/long 0.140010 2.900000
pair_coeff 12 12 lj/cut/coul/long 0.016730 3.550000
pair_coeff 13 13 lj/cut/coul/long 0.016730 3.550000
pair_coeff 14 14 lj/cut/coul/long 0.015774 3.500000
pair_coeff 15 15 lj/cut/coul/long 0.040631 3.300000
pair_coeff 16 16 lj/cut/coul/long 0.065989 3.500000
pair_coeff 17 17 lj/cut/coul/long 0.016730 3.550000
pair_coeff 18 18 lj/cut/coul/long 0.003585 2.500000
pair_coeff 19 19 lj/cut/coul/long 0.029995 2.420000
bond_coeff 1 317.005258 1.510000
bond_coeff 2 382.002868 1.448000
bond_coeff 3 340.000000 1.090000
bond_coeff 4 468.999761 1.400000
bond_coeff 5 367.000478 1.080000
bond_coeff 6 336.998088 1.466000
bond_coeff 7 339.985660 1.090000
bond_coeff 8 427.103250 1.378000
bond_coeff 9 477.055449 1.315000
bond_coeff 10 520.076482 1.341000
bond_coeff 11 339.985660 1.080000
bond_coeff 12 339.985660 1.080000
bond_coeff 13 427.103250 1.378000
bond_coeff 14 336.998088 1.466000
bond_coeff 15 477.055449 1.315000
bond_coeff 16 340.000000 1.090000
bond_coeff 17 267.999522 1.529000
bond_coeff 18 340.000000 1.090000
bond_coeff 19 267.999522 1.529000
bond_coeff 20 340.000000 1.090000
bond_coeff 21 320.004780 1.410000
bond_coeff 22 320.004780 1.410000
bond_coeff 23 469.000956 1.400000
bond_coeff 24 367.005258 1.080000
bond_coeff 25 468.999761 1.400000
bond_coeff 26 317.005258 1.510000
bond_coeff 27 340.000000 1.090000
bond_coeff 28 382.002868 1.448000
bond_coeff 29 382.002868 1.448000
bond_coeff 30 340.000000 1.090000
bond_coeff 31 520.076482 1.341000
bond_coeff 32 339.985660 1.080000
angle_coeff 1 56.202199 112.300000
angle_coeff 2 50.000000 109.500000
angle_coeff 3 35.002390 109.500000
angle_coeff 4 32.994742 107.800000
angle_coeff 5 70.004780 120.000000
angle_coeff 6 63.001912 120.000000
angle_coeff 7 35.002390 120.000000
angle_coeff 8 37.500000 110.700000
angle_coeff 9 32.994742 107.800000
angle_coeff 10 70.004780 125.600000
angle_coeff 11 70.004780 126.400000
angle_coeff 12 70.004780 108.000000
angle_coeff 13 70.004780 107.100000
angle_coeff 14 35.002390 122.000000
angle_coeff 15 35.002390 130.900000
angle_coeff 16 35.002390 130.900000
angle_coeff 17 70.004780 107.100000
angle_coeff 18 35.002390 122.000000
angle_coeff 19 70.004780 125.600000
angle_coeff 20 70.004780 108.000000
angle_coeff 21 70.004780 126.400000
angle_coeff 22 37.500000 110.700000
angle_coeff 23 58.353250 112.700000
angle_coeff 24 37.500000 110.700000
angle_coeff 25 32.994742 107.800000
angle_coeff 26 37.500000 110.700000
angle_coeff 27 58.353250 112.700000
angle_coeff 28 37.500000 110.700000
angle_coeff 29 32.994742 107.800000
angle_coeff 30 37.500000 110.700000
angle_coeff 31 50.000000 109.500000
angle_coeff 32 35.002390 109.500000
angle_coeff 33 32.994742 107.800000
angle_coeff 34 60.002390 111.000000
angle_coeff 35 50.000000 120.000000
angle_coeff 36 63.001912 120.000000
angle_coeff 37 35.002390 120.000000
angle_coeff 38 63.001912 120.000000
angle_coeff 39 35.002390 120.000000
angle_coeff 40 63.001912 120.000000
angle_coeff 41 70.004780 120.000000
angle_coeff 42 50.000000 109.500000
angle_coeff 43 58.353250 112.300000
angle_coeff 44 35.002390 109.500000
angle_coeff 45 58.353250 109.000000
angle_coeff 46 51.804493 107.200000
angle_coeff 47 51.804493 107.200000
angle_coeff 48 51.804493 107.200000
angle_coeff 49 35.002390 109.500000
angle_coeff 50 56.202199 109.500000
angle_coeff 51 32.994742 107.800000
angle_coeff 52 70.004780 109.800000
angle_coeff 53 35.002390 125.100000
angle_coeff 54 35.002390 125.100000
dihedral_coeff 1 0.000000 0.088671 0.066922 0.000000
dihedral_coeff 2 0.000000 0.000000 0.000000 0.000000
dihedral_coeff 3 0.394837 -0.153442 0.487572 0.000000
dihedral_coeff 4 0.394837 -0.153442 0.487572 0.000000
dihedral_coeff 5 0.000000 0.000000 0.133843 0.000000
dihedral_coeff 6 0.000000 0.000000 0.133843 0.000000
dihedral_coeff 7 0.000000 1.732792 0.000000 0.000000
dihedral_coeff 8 0.000000 1.732792 0.000000 0.000000
dihedral_coeff 9 0.000000 1.732792 0.000000 0.000000
dihedral_coeff 10 0.000000 1.732792 0.000000 0.000000
dihedral_coeff 11 0.000000 0.000000 0.000000 0.000000
dihedral_coeff 12 0.000000 0.000000 0.000000 0.000000
dihedral_coeff 13 0.000000 1.732792 0.000000 0.000000
dihedral_coeff 14 0.000000 1.732792 0.000000 0.000000
dihedral_coeff 15 0.000000 1.732792 0.000000 0.000000
dihedral_coeff 16 0.000000 1.732792 0.000000 0.000000
dihedral_coeff 17 0.000000 1.732792 0.000000 0.000000
dihedral_coeff 18 0.000000 1.732792 0.000000 0.000000
dihedral_coeff 19 0.000000 1.732792 0.000000 0.000000
dihedral_coeff 20 0.000000 1.732792 0.000000 0.000000
dihedral_coeff 21 0.000000 2.569312 0.000000 0.000000
dihedral_coeff 22 0.000000 2.569312 0.000000 0.000000
dihedral_coeff 23 0.000000 1.732792 0.000000 0.000000
dihedral_coeff 24 0.000000 2.569312 0.000000 0.000000
dihedral_coeff 25 0.000000 1.732792 0.000000 0.000000
dihedral_coeff 26 0.000000 1.732792 0.000000 0.000000
dihedral_coeff 27 0.000000 1.732792 0.000000 0.000000
dihedral_coeff 28 0.000000 1.732792 0.000000 0.000000
dihedral_coeff 29 0.000000 0.000000 0.000000 0.000000
dihedral_coeff 30 0.527008 0.007887 0.186902 0.000000
dihedral_coeff 31 0.000000 0.000000 0.000000 0.000000
dihedral_coeff 32 0.527008 0.007887 0.186902 0.000000
dihedral_coeff 33 0.000000 1.732792 0.000000 0.000000
dihedral_coeff 34 0.000000 1.732792 0.000000 0.000000
dihedral_coeff 35 0.000000 1.732792 0.000000 0.000000
dihedral_coeff 36 0.000000 1.732792 0.000000 0.000000
dihedral_coeff 37 0.000000 0.000000 0.071702 0.000000
dihedral_coeff 38 -0.308795 0.279159 0.000000 0.000000
dihedral_coeff 39 0.000000 0.000000 0.071702 0.000000
dihedral_coeff 40 0.000000 0.000000 0.071702 0.000000
dihedral_coeff 41 0.000000 0.000000 0.071702 0.000000
dihedral_coeff 42 0.299952 -0.147945 0.130497 0.000000
dihedral_coeff 43 0.000000 0.000000 0.071702 0.000000
dihedral_coeff 44 0.000000 0.000000 0.111855 0.000000
dihedral_coeff 45 -0.157027 -0.171128 0.162285 0.000000
dihedral_coeff 46 0.000000 0.000000 0.038480 0.000000
dihedral_coeff 47 0.000000 0.935946 0.000000 0.000000
dihedral_coeff 48 0.000000 1.732792 0.000000 0.000000
dihedral_coeff 49 0.000000 1.732792 0.000000 0.000000
dihedral_coeff 50 0.000000 1.732792 0.000000 0.000000
dihedral_coeff 51 0.000000 1.732792 0.000000 0.000000
dihedral_coeff 52 0.000000 1.732792 0.000000 0.000000
dihedral_coeff 53 0.000000 1.732792 0.000000 0.000000
dihedral_coeff 54 0.000000 1.732792 0.000000 0.000000
dihedral_coeff 55 0.000000 1.732792 0.000000 0.000000
dihedral_coeff 56 0.000000 1.732792 0.000000 0.000000
dihedral_coeff 57 0.000000 1.732792 0.000000 0.000000
dihedral_coeff 58 0.000000 1.732792 0.000000 0.000000
dihedral_coeff 59 0.000000 0.000000 0.000000 0.000000
dihedral_coeff 60 0.000000 0.088671 0.066922 0.000000
dihedral_coeff 61 0.394837 -0.153442 0.487572 0.000000
dihedral_coeff 62 0.394837 -0.153442 0.487572 0.000000
dihedral_coeff 63 0.000000 0.000000 0.133843 0.000000
dihedral_coeff 64 0.000000 0.000000 0.133843 0.000000
dihedral_coeff 65 0.110899 0.010038 0.119264 0.000000
dihedral_coeff 66 0.110899 0.010038 0.119264 0.000000
dihedral_coeff 67 0.000000 0.000000 0.133843 0.000000
dihedral_coeff 68 0.112094 0.009799 0.120698 0.000000
dihedral_coeff 69 0.000000 0.000000 0.133843 0.000000
dihedral_coeff 70 0.112094 0.009799 0.120698 0.000000
dihedral_coeff 71 0.000000 0.000000 0.071702 0.000000
dihedral_coeff 72 0.271272 -0.036090 0.095602 0.000000
dihedral_coeff 73 0.000000 0.000000 0.071702 0.000000
dihedral_coeff 74 0.000000 1.912046 0.000000 0.000000
dihedral_coeff 75 0.000000 0.525813 0.000000 0.000000
dihedral_coeff 76 0.000000 1.912046 0.000000 0.000000
dihedral_coeff 77 0.000000 0.525813 0.000000 0.000000
dihedral_coeff 78 0.000000 0.525813 0.000000 0.000000
dihedral_coeff 79 0.000000 1.912046 0.000000 0.000000
dihedral_coeff 80 0.000000 1.912046 0.000000 0.000000
dihedral_coeff 81 0.000000 0.525813 0.000000 0.000000
dihedral_coeff 82 0.000000 0.525813 0.000000 0.000000
dihedral_coeff 83 0.000000 1.912046 0.000000 0.000000
dihedral_coeff 84 0.000000 0.525813 0.000000 0.000000
pair_coeff 20 20 lj/cut/coul/long 0.065999 3.500000
pair_coeff 21 21 lj/cut/coul/long 0.250000 3.550000
pair_coeff 22 22 lj/cut/coul/long 0.200134 3.150000
pair_coeff 23 23 lj/cut/coul/long 0.061042 3.118000
pair_coeff 24 24 lj/cut/coul/long 0.170000 3.250000
bond_coeff 33 233.030593 1.818000
bond_coeff 34 441.921606 1.323000
bond_coeff 35 374.880497 1.570000
bond_coeff 36 637.069790 1.437000
angle_coeff 55 82.934990 111.700000
angle_coeff 56 93.331740 107.100000
angle_coeff 57 91.300191 103.500000
angle_coeff 58 103.967495 102.600000
angle_coeff 59 94.287763 113.600000
angle_coeff 60 115.798279 118.500000
angle_coeff 61 80.186424 125.600000
dihedral_coeff 85 0.000000 0.000000 0.315966 0.000000
dihedral_coeff 86 0.000000 0.000000 0.346797 0.000000
dihedral_coeff 87 7.832935 -2.490440 -0.763623 0.000000
dihedral_coeff 88 0.000000 0.000000 -0.003585 0.000000
fix SHAKE all shake 0.0001 20 0 b 3 5 7 11 12 16 18 20 24 27 30 32
fix SHAKE all shake 0.0001 20 0 b 3 5 7 11 12 16 18 20 24 27 30 32
fix SHAKE all shake 0.0001 20 0 b 3 5 7 11 12 16 18 20 24 27 30 32
fix SHAKE all shake 0.0001 20 0 b 3 5 7 11 12 16 18 20 24 27 30 32
fix SHAKE all shake 0.0001 20 0 b 3 5 7 11 12 16 18 20 24 27 30 32
fix SHAKE all shake 0.0001 20 0 b 3 5 7 11 12 16 18 20 24 27 30 32
fix SHAKE all shake 0.0001 20 0 b 3 5 7 11 12 16 18 20 24 27 30 32
fix SHAKE all shake 0.0001 20 0 b 3 5 7 11 12 16 18 20 24 27 30 32
fix SHAKE all shake 0.0001 20 0 b 3 5 7 11 12 16 18 20 24 27 30 32
fix SHAKE all shake 0.0001 20 0 b 3 5 7 11 12 16 18 20 24 27 30 32
fix SHAKE all shake 0.0001 20 0 b 3 5 7 11 12 16 18 20 24 27 30 32
fix SHAKE all shake 0.0001 20 0 b 3 5 7 11 12 16 18 20 24 27 30 32
fix SHAKE all shake 0.0001 20 0 b 3 5 7 11 12 16 18 20 24 27 30 32
fix SHAKE all shake 0.0001 20 0 b 3 5 7 11 12 16 18 20 24 27 30 32
fix SHAKE all shake 0.0001 20 0 b 3 5 7 11 12 16 18 20 24 27 30 32
fix SHAKE all shake 0.0001 20 0 b 3 5 7 11 12 16 18 20 24 27 30 32
fix SHAKE all shake 0.0001 20 0 b 3 5 7 11 12 16 18 20 24 27 30 32
fix SHAKE all shake 0.0001 20 0 b 3 5 7 11 12 16 18 20 24 27 30 32
fix SHAKE all shake 0.0001 20 0 b 3 5 7 11 12 16 18 20 24 27 30 32
fix SHAKE all shake 0.0001 20 0 b 3 5 7 11 12 16 18 20 24 27 30 32
fix SHAKE all shake 0.0001 20 0 b 3 5 7 11 12 16 18 20 24 27 30 32
fix SHAKE all shake 0.0001 20 0 b 3 5 7 11 12 16 18 20 24 27 30 32
fix SHAKE all shake 0.0001 20 0 b 3 5 7 11 12 16 18 20 24 27 30 32
fix SHAKE all shake 0.0001 20 0 b 3 5 7 11 12 16 18 20 24 27 30 32
fix SHAKE all shake 0.0001 20 0 b 3 5 7 11 12 16 18 20 24 27 30 32
fix SHAKE all shake 0.0001 20 0 b 3 5 7 11 12 16 18 20 24 27 30 32
fix SHAKE all shake 0.0001 20 0 b 3 5 7 11 12 16 18 20 24 27 30 32
fix SHAKE all shake 0.0001 20 0 b 3 5 7 11 12 16 18 20 24 27 30 32
fix SHAKE all shake 0.0001 20 0 b 3 5 7 11 12 16 18 20 24 27 30 32
fix SHAKE all shake 0.0001 20 0 b 3 5 7 11 12 16 18 20 24 27 30 32
fix SHAKE all shake 0.0001 20 0 b 3 5 7 11 12 16 18 20 24 27 30 32
fix SHAKE all shake 0.0001 20 0 b 3 5 7 11 12 16 18 20 24 27 30 32
fix SHAKE all shake 0.0001 20 0 b 3 5 7 11 12 16 18 20 24 27 30 32
fix SHAKE all shake 0.0001 20 0 b 3 5 7 11 12 16 18 20 24 27 30 32
fix SHAKE all shake 0.0001 20 0 b 3 5 7 11 12 16 18 20 24 27 30 32
fix SHAKE all shake 0.0001 20 0 b 3 5 7 11 12 16 18 20 24 27 30 32
fix SHAKE all shake 0.0001 20 0 b 3 5 7 11 12 16 18 20 24 27 30 32
fix SHAKE all shake 0.0001 20 0 b 3 5 7 11 12 16 18 20 24 27 30 32
fix SHAKE all shake 0.0001 20 0 b 3 5 7 11 12 16 18 20 24 27 30 32
fix SHAKE all shake 0.0001 20 0 b 3 5 7 11 12 16 18 20 24 27 30 32
fix SHAKE all shake 0.0001 20 0 b 3 5 7 11 12 16 18 20 24 27 30 32
fix SHAKE all shake 0.0001 20 0 b 3 5 7 11 12 16 18 20 24 27 30 32
fix SHAKE all shake 0.0001 20 0 b 3 5 7 11 12 16 18 20 24 27 30 32
fix SHAKE all shake 0.0001 20 0 b 3 5 7 11 12 16 18 20 24 27 30 32
fix SHAKE all shake 0.0001 20 0 b 3 5 7 11 12 16 18 20 24 27 30 32
fix SHAKE all shake 0.0001 20 0 b 3 5 7 11 12 16 18 20 24 27 30 32
fix SHAKE all shake 0.0001 20 0 b 3 5 7 11 12 16 18 20 24 27 30 32
fix SHAKE all shake 0.0001 20 0 b 3 5 7 11 12 16 18 20 24 27 30 32
