# created by fftool

units real
boundary p p p

atom_style full
bond_style harmonic
angle_style harmonic
dihedral_style opls

special_bonds lj/coul 0.0 0.0 0.5

# remove hybrid if not necessary
pair_style hybrid lj/cut/coul/long 12.0 12.0
pair_modify mix geometric tail yes
kspace_style pppm 1.0e-5

read_data data.lmp
# read_restart restart1.lmp

# remove pair style if not using hybrid
pair_coeff    1    1 lj/cut/coul/long     0.015774     3.500000  # CT1 CT1
pair_coeff    2    2 lj/cut/coul/long     0.070005     3.550000  # CA1 CA1
pair_coeff    3    3 lj/cut/coul/long     0.015774     3.500000  # CT7 CT7
pair_coeff    4    4 lj/cut/coul/long     0.040631     3.250000  # NI1 NI1
pair_coeff    5    5 lj/cut/coul/long     0.016730     3.550000  # CI1 CI1
pair_coeff    6    6 lj/cut/coul/long     0.016730     3.550000  # CI2 CI2
pair_coeff    7    7 lj/cut/coul/long     0.040631     3.250000  # NI2 NI2
pair_coeff    8    8 lj/cut/coul/long     0.015774     3.500000  # CT2 CT2
pair_coeff    9    9 lj/cut/coul/long     0.015774     3.500000  # CT3 CT3
pair_coeff   10   10 lj/cut/coul/long     0.015774     3.500000  # CT4 CT4
pair_coeff   11   11 lj/cut/coul/long     0.140010     2.900000  # OY OY
pair_coeff   12   12 lj/cut/coul/long     0.016730     3.550000  # CA2 CA2
pair_coeff   13   13 lj/cut/coul/long     0.016730     3.550000  # CA CA
pair_coeff   14   14 lj/cut/coul/long     0.015774     3.500000  # CT5 CT5
pair_coeff   15   15 lj/cut/coul/long     0.040631     3.300000  # NT NT
pair_coeff   16   16 lj/cut/coul/long     0.065989     3.500000  # CT6 CT6
pair_coeff   17   17 lj/cut/coul/long     0.016730     3.550000  # CR CR
pair_coeff   18   18 lj/cut/coul/long     0.003585     2.500000  # HC HC
pair_coeff   19   19 lj/cut/coul/long     0.029995     2.420000  # HA HA

# minimize 1.0e-4 1.0e-6 100 1000
# reset_timestep 0

fix SHAKE all shake 0.0001 20 0 b 3 5 7 11 12 16 18 20 24 27 30 32

neighbor 2.0 bin
# neigh_modify delay 0 every 1 check yes

timestep 1.0

variable TK equal 300.0
variable PBAR equal 1.0

velocity all create ${TK} 12345

fix TPSTAT all npt temp ${TK} ${TK} 100 iso ${PBAR} ${PBAR} 1000

thermo 1000
thermo_style custom step cpu etotal ke pe evdwl ecoul elong temp press vol density

dump TRAJ all custom 1000 dump.lammpstrj id mol type element q xu yu zu
dump_modify TRAJ element C C C N C C N C C C O C C C N C C H H

# restart 10000 restart1.lmp restart2.lmp

# uncomment the following to rescale to average volume at end of equilibration
#variable vinst equal vol
#fix VAVG all ave/time 10 1000 50000 v_vinst

#run 50000

#variable lscale equal (f_VAVG/v_vinst)^(1.0/3.0)
#print "scaling coordinates by ${lscale}"
#change_box all x scale ${lscale} y scale ${lscale} z scale ${lscale} remap

#unfix VAVG
#unfix TPSTAT
#fix TSTAT all nvt temp ${TK} ${TK} 100

run 10000

write_data data.eq.lmp
